N = 5;
H = 6;
T = 2;

avail = array3d(1..N, 1..H, 1..T, [5, 6, 3, 2, 0, 3, 4, 5, 3, 1, 6, 10, 0, 9, 3, 1, 3, 8, 1, 10, 2, 5, 4, 9, 8, 5, 6, 8, 4, 10, 2, 8, 10, 8, 5, 9, 4, 10, 7, 9, 3, 2, 0, 2, 4, 5, 8, 7, 7, 1, 0, 7, 1, 10, 10, 0, 7, 10, 10, 4]);

r = array2d(1..H, 1..T, [1, 0, 1, 1, 1, 0, 1, 1, 1, 1, 0, 2]);
